%chk=water.chk
# hf/3-21g geom=connectivity

water

0 1
 O                  0.00000000    0.25090000    0.00000000
 H                  0.96000000    0.25090000    0.00000000
 H                 -0.32050000    1.15580000    0.00000000

 1 2 1.0 3 1.0
 2
 3

