%nprocshared=8
%mem=8GB
%chk=Benzonitrile_roughopt.chk
# HF/STO-3G opt geom=connectivity

Benzonitrile HF/STO-3G rough geometry optimization

0 1
C      0.221700     1.212100    -0.023100
C      1.616900     1.203400     0.019600
C      2.306300    -0.009100     0.047500
C      1.604900    -1.214400     0.018700
C      0.209700    -1.209100    -0.026000
C     -0.485900     0.005000    -0.036600
C     -1.918500     0.011200    -0.040700
N     -3.079900     0.015100    -0.031000
H     -0.307400     2.163100    -0.038600
H      2.166700     2.141500     0.037200
H      3.392900    -0.014600     0.093200
H      2.144900    -2.158200     0.036800
H     -0.329000    -2.154400    -0.045100

1 2 1.0 6 2.0 9 1.0
2 3 2.0 10 1.0
3 4 1.0 11 1.0
4 5 2.0 12 1.0
5 6 1.0 13 1.0
6 7 1.0
7 8 3.0
8
9
10
11
12
13


--link1--
%nprocshared=8
%mem=8GB
%oldchk=Benzonitrile_roughopt.chk
%chk=Benzonitrile_optfreq.chk
# B3LYP/6-31G(d,p) opt freq em=GD3BJ geom=allcheck

Benzonitrile B3LYP/6-31G(d,p) opt freq


--link1--
%nprocshared=8
%mem=8GB
%oldchk=Benzonitrile_optfreq.chk
%chk=Benzonitrile_tzvp_opt.chk
# B3LYP/TZVP opt em=GD3BJ geom=allcheck

Benzonitrile B3LYP/TZVP geometry optimization


--link1--
%nprocshared=8
%mem=8GB
%oldchk=Benzonitrile_tzvp_opt.chk
%chk=Benzonitrile_SP_VAC.chk
# B3LYP/def2TZVP em=GD3BJ geom=allcheck

Benzonitrile B3LYP/def2TZVP single point energy in vacuum


--link1--
%nprocshared=8
%mem=8GB
%oldchk=Benzonitrile_tzvp_opt.chk
%chk=Benzonitrile_SP_water.chk
# B3LYP/def2TZVP em=GD3BJ scrf=(solvent=water) geom=allcheck

Benzonitrile B3LYP/def2TZVP single point energy in water

